Problem:    
Rows:       248
Columns:    89 (72 integer, 72 binary)
Non-zeros:  820
Status:     INTEGER OPTIMAL
Objective:  value = 14.581092 (MINimum)

   No.   Row name        Activity     Lower bound   Upper bound
------ ------------    ------------- ------------- -------------
     1 r.5                   2014.58             0               
     2 r.6                  -1996.37      -1998.92               
     3 r.7                   14.5811             0               
     4 r.8                  -1963.55      -1989.09               
     5 r.9                   2014.58             0               
     6 r.10                 -1994.95      -1998.79               
     7 r.11                  14.5811             0               
     8 r.12                -0.793264      -1989.09               
     9 r.13                  2014.58             0               
    10 r.14                 -1989.78      -1998.25               
    11 r.15                  14.5811             0               
    12 r.16                 -1974.46      -1985.43               
    13 r.17                  2014.58             0               
    14 r.18                 -1994.04      -1999.09               
    15 r.19                  14.5811             0               
    16 r.20                 -1952.65       -1989.1               
    17 r.21                  2014.58             0               
    18 r.22                 -1993.18      -1999.15               
    19 r.23                  14.5811             0               
    20 r.24                  7.71794      -1991.49               
    21 r.25                  2014.58             0               
    22 r.26                 -1988.15      -1998.37               
    23 r.27                  14.5811             0               
    24 r.28                 -1938.31      -1985.66               
    25 r.29                  2014.58             0               
    26 r.30                 -1985.42      -1998.14               
    27 r.31                  14.5811             0               
    28 r.32                  14.5811      -1993.95               
    29 r.33                  2014.58             0               
    30 r.34                 -1999.95      -1999.95               
    31 r.35                  14.5811             0               
    32 r.36                 0.051125      -1998.66               
    33 r.37                        1             1             = 
    34 r.38                        1             1             = 
    35 r.39                        1             1             = 
    36 r.40                        1             1             = 
    37 r.41                        1             1             = 
    38 r.42                        1             1             = 
    39 r.43                        1             1             = 
    40 r.44                        1             1             = 
    41 r.45                    1.418       1.20994               
    42 r.46                   -1.418      -1998.92               
    43 r.47                  1962.76       10.9058               
    44 r.48                 -1962.76      -1989.09               
    45 r.49                  6.58481       1.75341               
    46 r.50                 -6.58481      -1998.92               
    47 r.51                  1989.09       14.5725               
    48 r.52                 -1989.09      -1989.09               
    49 r.53                   2.3314        0.9134               
    50 r.54                  -2.3314      -1998.92               
    51 r.55                   10.896        10.896               
    52 r.56                  -10.896      -1989.09               
    53 r.57                  3.18363      0.852233               
    54 r.58                 -3.18363      -1998.92               
    55 r.59                  1971.27        8.5112               
    56 r.60                 -1971.27      -1989.09               
    57 r.61                 -1991.78      -1995.87               
    58 r.62                 -1941.95      -1980.66               
    59 r.63                 -24.6017      -1995.87               
    60 r.64                  25.2352      -1980.66               
    61 r.65                   10.948       1.86316               
    62 r.66                  -10.948      -1998.92               
    63 r.67                  1978.13        6.0461               
    64 r.68                 -1978.13      -1989.09               
    65 r.69                 -1996.42      -1996.42               
    66 r.70                  -1963.6      -1984.09               
    67 r.71                 -1996.42      -1996.42               
    68 r.72                  -1963.6      -1984.09               
    69 r.73                  1998.58         1.082               
    70 r.74                 -1998.58      -1998.79               
    71 r.75                  37.2439       10.9136               
    72 r.76                 -37.2439      -1989.09               
    73 r.77                  5.16681       1.75341               
    74 r.78                 -5.16681      -1998.79               
    75 r.79                  26.3303       14.5725               
    76 r.80                 -26.3303      -1989.09               
    77 r.81                   0.9134        0.9134               
    78 r.82                  -0.9134      -1998.79               
    79 r.83                  48.1399        10.896               
    80 r.84                 -48.1399      -1989.09               
    81 r.85                  1.76563      0.852233               
    82 r.86                 -1.76563      -1998.79               
    83 r.87                   8.5112        8.5112               
    84 r.88                  -8.5112      -1989.09               
    85 r.89                  6.79775       1.63094               
    86 r.90                 -6.79775      -1998.79               
    87 r.91                  62.4791       14.3392               
    88 r.92                 -62.4791      -1989.09               
    89 r.93                 -1990.47      -1995.64               
    90 r.94                  9.52997      -1988.95               
    91 r.95                 -1984.63      -1995.64               
    92 r.96                  15.3744      -1988.95               
    93 r.97                    -1995      -1996.29               
    94 r.98                -0.844389      -1984.09               
    95 r.99                    -1995      -1996.29               
    96 r.100               -0.844389      -1984.09               
    97 r.101                 1993.42         1.082               
    98 r.102                -1993.42      -1998.25               
    99 r.103                 10.9136       10.9136               
   100 r.104                -10.9136      -1985.43               
   101 r.105                 1994.83       1.20994               
   102 r.106                -1994.83      -1998.25               
   103 r.107                 1973.67       10.9058               
   104 r.108                -1973.67      -1985.43               
   105 r.109                -1995.75      -1995.75               
   106 r.110                -1980.43      -1980.43               
   107 r.111                -37.1287      -1995.75               
   108 r.112                -21.8096      -1980.43               
   109 r.113                  1996.6      0.852233               
   110 r.114                 -1996.6      -1998.25               
   111 r.115                 1982.18        8.5112               
   112 r.116                -1982.18      -1985.43               
   113 r.117                 1.63094       1.63094               
   114 r.118                -1.63094      -1998.25               
   115 r.119                 36.1488       14.3392               
   116 r.120                -36.1488      -1985.43               
   117 r.121                -1995.64      -1995.64               
   118 r.122                 4.36316      -1988.95               
   119 r.123                -10.9559      -1995.64               
   120 r.124                 1989.04      -1988.95               
   121 r.125                -1989.83      -1995.75               
   122 r.126                -1974.51      -1980.43               
   123 r.127                -1989.83      -1995.75               
   124 r.128                -1974.51      -1980.43               
   125 r.129                 1997.67         1.082               
   126 r.130                -1997.67      -1999.09               
   127 r.131                  1989.1       10.9136               
   128 r.132                 -1989.1       -1989.1               
   129 r.133                 1999.09       1.20994               
   130 r.134                -1999.09      -1999.09               
   131 r.135                 1951.86       10.9058               
   132 r.136                -1951.86       -1989.1               
   133 r.137                -1995.75      -1995.75               
   134 r.138                -1980.43      -1980.43               
   135 r.139                -37.1287      -1995.75               
   136 r.140                -21.8096      -1980.43               
   137 r.141                0.852233      0.852233               
   138 r.142               -0.852233      -1999.09               
   139 r.143                 1960.37        8.5112               
   140 r.144                -1960.37       -1989.1               
   141 r.145                 5.88435       1.63094               
   142 r.146                -5.88435      -1999.09               
   143 r.147                 14.3392       14.3392               
   144 r.148                -14.3392       -1989.1               
   145 r.149                -1991.38      -1995.64               
   146 r.150                 8.61657      -1988.95               
   147 r.151                -32.7655      -1995.64               
   148 r.152                 1967.23      -1988.95               
   149 r.153                -1994.09      -1994.09               
   150 r.154                 -1952.7       -1979.1               
   151 r.155                -1994.09      -1994.09               
   152 r.156                 -1952.7       -1979.1               
   153 r.157                 1996.82         1.082               
   154 r.158                -1996.82      -1999.15               
   155 r.159                 28.7327       10.9136               
   156 r.160                -28.7327      -1991.49               
   157 r.161                 1998.23       1.20994               
   158 r.162                -1998.23      -1999.15               
   159 r.163                 1991.49       10.9058               
   160 r.164                -1991.49      -1991.49               
   161 r.165                 3.40118       1.75341               
   162 r.166                -3.40118      -1999.15               
   163 r.167                 17.8191       14.5725               
   164 r.168                -17.8191      -1991.49               
   165 r.169                 1999.15        0.9134               
   166 r.170                -1999.15      -1999.15               
   167 r.171                 39.6287        10.896               
   168 r.172                -39.6287      -1991.49               
   169 r.173                -1994.97      -1995.87               
   170 r.174                -1945.13      -1980.66               
   171 r.175                -1995.87      -1995.87               
   172 r.176                -1946.03      -1980.66               
   173 r.177                -1992.24      -1995.64               
   174 r.178                 7.76433      -1988.95               
   175 r.179                -1993.14      -1995.64               
   176 r.180                 6.86316      -1988.95               
   177 r.181                -1993.23      -1994.15               
   178 r.182                 7.66681      -1981.49               
   179 r.183                -1993.23      -1994.15               
   180 r.184                 7.66681      -1981.49               
   181 r.185                -1991.78      -1995.87               
   182 r.186                -1941.95      -1980.66               
   183 r.187                -24.6017      -1995.87               
   184 r.188                 25.2352      -1980.66               
   185 r.189                  1993.2       1.20994               
   186 r.190                 -1993.2      -1998.37               
   187 r.191                 1937.52       10.9058               
   188 r.192                -1937.52      -1985.66               
   189 r.193                 1998.37       1.75341               
   190 r.194                -1998.37      -1998.37               
   191 r.195                 1963.85       14.5725               
   192 r.196                -1963.85      -1985.66               
   193 r.197                 1994.12        0.9134               
   194 r.198                -1994.12      -1998.37               
   195 r.199                 1985.66        10.896               
   196 r.200                -1985.66      -1985.66               
   197 r.201                -1994.97      -1995.87               
   198 r.202                -1945.13      -1980.66               
   199 r.203                -1995.87      -1995.87               
   200 r.204                -1946.03      -1980.66               
   201 r.205                 2.73221       1.86316               
   202 r.206                -2.73221      -1998.37               
   203 r.207                  1952.9        6.0461               
   204 r.208                 -1952.9      -1985.66               
   205 r.209                 1989.05         1.082               
   206 r.210                -1989.05      -1998.14               
   207 r.211                 21.8695       10.9136               
   208 r.212                -21.8695      -1993.95               
   209 r.213                -1990.47      -1995.64               
   210 r.214                 9.52997      -1988.95               
   211 r.215                -1984.63      -1995.64               
   212 r.216                 15.3744      -1988.95               
   213 r.217                -1995.64      -1995.64               
   214 r.218                 4.36316      -1988.95               
   215 r.219                -10.9559      -1995.64               
   216 r.220                 1989.04      -1988.95               
   217 r.221                -1991.38      -1995.64               
   218 r.222                 8.61657      -1988.95               
   219 r.223                -32.7655      -1995.64               
   220 r.224                 1967.23      -1988.95               
   221 r.225                -1992.24      -1995.64               
   222 r.226                 7.76433      -1988.95               
   223 r.227                -1993.14      -1995.64               
   224 r.228                 6.86316      -1988.95               
   225 r.229                 1997.27       1.63094               
   226 r.230                -1997.27      -1998.14               
   227 r.231                 47.1047       14.3392               
   228 r.232                -47.1047      -1993.95               
   229 r.233                -1996.42      -1996.42               
   230 r.234                 -1963.6      -1984.09               
   231 r.235                -1996.42      -1996.42               
   232 r.236                 -1963.6      -1984.09               
   233 r.237                   -1995      -1996.29               
   234 r.238               -0.844389      -1984.09               
   235 r.239                   -1995      -1996.29               
   236 r.240               -0.844389      -1984.09               
   237 r.241                -1989.83      -1995.75               
   238 r.242                -1974.51      -1980.43               
   239 r.243                -1989.83      -1995.75               
   240 r.244                -1974.51      -1980.43               
   241 r.245                -1994.09      -1994.09               
   242 r.246                 -1952.7       -1979.1               
   243 r.247                -1994.09      -1994.09               
   244 r.248                 -1952.7       -1979.1               
   245 r.249                -1993.23      -1994.15               
   246 r.250                 7.66681      -1981.49               
   247 r.251                -1993.23      -1994.15               
   248 r.252                 7.66681      -1981.49               

   No. Column name       Activity     Lower bound   Upper bound
------ ------------    ------------- ------------- -------------
     1 tt                    14.5811             0               
     2 s_1_1        *              1             0             1 
     3 t_1_1                  10.948             0               
     4 s_1_6        *              1             0             1 
     5 s_2_1        *              0             0             1 
     6 t_2_1                 1978.13             0               
     7 s_2_6        *              0             0             1 
     8 s_1_2        *              1             0             1 
     9 t_1_2                 9.52997             0               
    10 s_1_7        *              1             0             1 
    11 s_2_2        *              0             0             1 
    12 t_2_2                 15.3744             0               
    13 s_2_7        *              0             0             1 
    14 s_1_3        *              1             0             1 
    15 t_1_3                 4.36316             0               
    16 s_2_3        *              0             0             1 
    17 t_2_3                 1989.04             0               
    18 s_1_4        *              1             0             1 
    19 t_1_4                 8.61657             0               
    20 s_2_4        *              0             0             1 
    21 t_2_4                 1967.23             0               
    22 s_1_5        *              1             0             1 
    23 t_1_5                 7.76433             0               
    24 s_2_5        *              0             0             1 
    25 t_2_5                 6.86316             0               
    26 t_1_6                 2.73221             0               
    27 t_2_6                  1952.9             0               
    28 t_1_7                       0             0               
    29 t_2_7                       0             0               
    30 s_1_8        *              1             0             1 
    31 t_1_8                   14.53             0               
    32 s_2_8        *              0             0             1 
    33 t_2_8                   14.53             0               
    34 u_1_1_2      *              0             0             1 
    35 u_2_1_2      *              0             0             1 
    36 u_1_1_3      *              0             0             1 
    37 u_2_1_3      *              1             0             1 
    38 u_1_1_4      *              0             0             1 
    39 u_2_1_4      *              0             0             1 
    40 u_1_1_5      *              0             0             1 
    41 u_2_1_5      *              0             0             1 
    42 u_1_1_7      *              0             0             1 
    43 u_2_1_7      *              0             0             1 
    44 u_1_2_1      *              1             0             1 
    45 u_2_2_1      *              1             0             1 
    46 u_1_2_3      *              0             0             1 
    47 u_2_2_3      *              1             0             1 
    48 u_1_2_4      *              0             0             1 
    49 u_2_2_4      *              1             0             1 
    50 u_1_2_5      *              0             0             1 
    51 u_2_2_5      *              0             0             1 
    52 u_1_2_6      *              0             0             1 
    53 u_2_2_6      *              1             0             1 
    54 u_1_3_1      *              1             0             1 
    55 u_2_3_1      *              0             0             1 
    56 u_1_3_2      *              1             0             1 
    57 u_2_3_2      *              0             0             1 
    58 u_1_3_5      *              1             0             1 
    59 u_2_3_5      *              0             0             1 
    60 u_1_3_6      *              0             0             1 
    61 u_2_3_6      *              0             0             1 
    62 u_1_4_1      *              1             0             1 
    63 u_2_4_1      *              1             0             1 
    64 u_1_4_2      *              1             0             1 
    65 u_2_4_2      *              0             0             1 
    66 u_1_4_5      *              0             0             1 
    67 u_2_4_5      *              0             0             1 
    68 u_1_4_6      *              0             0             1 
    69 u_2_4_6      *              0             0             1 
    70 u_1_5_1      *              1             0             1 
    71 u_2_5_1      *              1             0             1 
    72 u_1_5_2      *              1             0             1 
    73 u_2_5_2      *              1             0             1 
    74 u_1_5_3      *              0             0             1 
    75 u_2_5_3      *              1             0             1 
    76 u_1_5_4      *              1             0             1 
    77 u_2_5_4      *              1             0             1 
    78 u_1_6_2      *              1             0             1 
    79 u_2_6_2      *              0             0             1 
    80 u_1_6_3      *              1             0             1 
    81 u_2_6_3      *              1             0             1 
    82 u_1_6_4      *              1             0             1 
    83 u_2_6_4      *              1             0             1 
    84 u_1_6_7      *              0             0             1 
    85 u_2_6_7      *              0             0             1 
    86 u_1_7_1      *              1             0             1 
    87 u_2_7_1      *              1             0             1 
    88 u_1_7_6      *              1             0             1 
    89 u_2_7_6      *              1             0             1 

Integer feasibility conditions:

KKT.PE: max.abs.err = 0.00e+00 on row 0
        max.rel.err = 0.00e+00 on row 0
        High quality

KKT.PB: max.abs.err = 2.27e-13 on row 149
        max.rel.err = 3.58e-15 on row 51
        High quality

End of output
